c This is an instance of the exact track of PACE 2020 Challenge, see https://pacechallenge.org/2020/ 
c TYPE: infrastracture 
c ORIGIN: Open street maps 
c DESCRIPTION: Wietrzychowice (Poland): a road network downloaded from open street maps using osmnx Python package 
p tdp 102 144
1 27
1 31
1 21
1 20
1 26
2 12
2 100
2 31
3 4
3 13
3 6
4 17
4 76
4 11
5 100
5 19
5 17
6 16
6 14
6 13
7 80
7 101
7 15
8 11
8 15
8 12
9 88
9 76
9 86
10 34
10 87
10 18
11 15
12 100
13 17
14 89
14 17
14 19
16 36
18 37
18 86
19 20
21 24
21 38
22 25
22 23
22 30
23 29
23 33
23 32
24 33
24 29
25 81
25 90
26 99
26 102
28 29
28 30
28 32
30 32
31 33
35 36
35 85
35 76
37 85
38 39
38 78
39 42
39 40
39 45
40 46
40 41
41 48
41 47
42 65
42 44
43 69
44 64
44 45
45 46
45 49
46 59
46 48
47 48
47 51
48 50
49 52
49 62
50 51
50 53
51 57
52 61
52 58
53 60
53 54
54 55
54 63
55 66
55 56
56 67
56 57
57 68
59 60
59 61
60 63
61 62
62 64
63 66
63 72
64 65
65 73
66 67
66 72
67 68
67 71
68 69
68 70
69 70
70 71
71 72
74 92
74 75
74 81
75 95
75 93
75 97
77 102
78 79
78 95
80 90
80 91
81 97
82 97
83 95
83 84
84 102
85 86
86 87
87 101
87 92
90 92
92 94
95 98
96 101
